r = [
0,142,35,4,135,72,192,124,106,80,151,157,173,197,110,90,185,192,57,68,51,146,170,48,143,159,0
];
p = [
0,1,7,24,18,29,27,16,14,20,4,18,20,7,28,14,8,1,18,28,25,20,13,14,10,13,0
];
e = [
0,13,15,20,1,6,13,13,17,18,10,8,20,14,13,5,6,4,8,14,18,7,5,3,20,9,0
];
d = [
0,339,245,187,317,261,376,308,288,280,352,359,388,382,308,275,378,397,256,257,259,334,379,230,349,376,398
];
d_bar = [
0,340,246,189,319,264,379,310,289,282,353,361,390,383,311,276,379,398,258,260,262,336,380,231,350,377,398
];
w = [
0,13,15,10,0.5,2,4.333333333,6.5,17,9,10,4,10,14,4.333333333,5,6,4,4,4.666666667,6,3.5,5,3,20,9,0
];
